; SWAP4 SWAP5 SWAP1 SWAP4 SWAP1 => SWAP1 SWAP4 SWAP5
(set-option :produce-proofs true)
; 
(set-info :status unknown)
(declare-fun storage_t ((_ BitVec 256) (_ BitVec 256) (_ BitVec 256) (_ BitVec 256) (_ BitVec 256) (_ BitVec 256) Int (_ BitVec 256)) (_ BitVec 256))
(declare-fun storage_s ((_ BitVec 256) (_ BitVec 256) (_ BitVec 256) (_ BitVec 256) (_ BitVec 256) (_ BitVec 256) Int (_ BitVec 256)) (_ BitVec 256))
(declare-fun exc_halt_t (Int) Bool)
(declare-fun exc_halt_s (Int) Bool)
(declare-fun sc_t (Int) (_ BitVec 6))
(declare-fun stack_t ((_ BitVec 256) (_ BitVec 256) (_ BitVec 256) (_ BitVec 256) (_ BitVec 256) (_ BitVec 256) Int (_ BitVec 6)) (_ BitVec 256))
(declare-fun stack_s ((_ BitVec 256) (_ BitVec 256) (_ BitVec 256) (_ BitVec 256) (_ BitVec 256) (_ BitVec 256) Int (_ BitVec 6)) (_ BitVec 256))
(declare-fun sc_s (Int) (_ BitVec 6))
(declare-fun used_gas_t ((_ BitVec 256) (_ BitVec 256) (_ BitVec 256) (_ BitVec 256) (_ BitVec 256) (_ BitVec 256) Int) Int)
(declare-fun used_gas_s ((_ BitVec 256) (_ BitVec 256) (_ BitVec 256) (_ BitVec 256) (_ BitVec 256) (_ BitVec 256) Int) Int)
(assert
 (exists ((x_0 (_ BitVec 256)) (x_1 (_ BitVec 256)) (x_2 (_ BitVec 256)) (x_3 (_ BitVec 256)) (x_4 (_ BitVec 256)) (x_5 (_ BitVec 256)) )(let (($x5878 (forall ((w (_ BitVec 256)) )(let ((?x4661 (storage_t x_0 x_1 x_2 x_3 x_4 x_5 3 w)))
 (let ((?x6635 (storage_s x_0 x_1 x_2 x_3 x_4 x_5 5 w)))
 (= ?x6635 ?x4661))))
 ))
 (let (($x6783 (exc_halt_t 3)))
 (let (($x11317 (exc_halt_s 5)))
 (let (($x11613 (= $x11317 $x6783)))
 (let (($x2042 (forall ((n (_ BitVec 6)) )(let ((?x6438 (sc_t 3)))
 (let (($x5838 (bvsle ?x6438 n)))
 (let ((?x5779 (stack_t x_0 x_1 x_2 x_3 x_4 x_5 3 n)))
 (let ((?x8461 (stack_s x_0 x_1 x_2 x_3 x_4 x_5 5 n)))
 (let (($x2010 (= ?x8461 ?x5779)))
 (or $x2010 $x5838)))))))
 ))
 (let ((?x6438 (sc_t 3)))
 (let ((?x4319 (sc_s 5)))
 (let (($x7281 (= ?x4319 ?x6438)))
 (let ((?x2427 (used_gas_t x_0 x_1 x_2 x_3 x_4 x_5 0)))
 (let ((?x9589 (used_gas_s x_0 x_1 x_2 x_3 x_4 x_5 0)))
 (let (($x5820 (= ?x9589 ?x2427)))
 (let (($x5141 (forall ((w (_ BitVec 256)) )(let ((?x5643 (storage_t x_0 x_1 x_2 x_3 x_4 x_5 0 w)))
 (let ((?x9722 (storage_s x_0 x_1 x_2 x_3 x_4 x_5 0 w)))
 (= ?x9722 ?x5643))))
 ))
 (let (($x56 (exc_halt_t 0)))
 (let (($x57 (exc_halt_s 0)))
 (let (($x58 (= $x57 $x56)))
 (let (($x5917 (forall ((n (_ BitVec 6)) )(let ((?x63 (sc_t 0)))
 (let (($x6686 (bvsle ?x63 n)))
 (let ((?x11196 (stack_t x_0 x_1 x_2 x_3 x_4 x_5 0 n)))
 (let ((?x357 (stack_s x_0 x_1 x_2 x_3 x_4 x_5 0 n)))
 (let (($x4736 (= ?x357 ?x11196)))
 (or $x4736 $x6686)))))))
 ))
 (let ((?x63 (sc_t 0)))
 (let ((?x72 (sc_s 0)))
 (let (($x73 (= ?x72 ?x63)))
 (let (($x10240 (= $x6783 (or (exc_halt_t 2) (not (bvsle (_ bv0 6) (bvadd (_ bv58 6) (sc_t 2))))))))
 (let (($x1823 (forall ((w (_ BitVec 256)) )(let ((?x8319 (storage_t x_0 x_1 x_2 x_3 x_4 x_5 2 w)))
 (let ((?x4661 (storage_t x_0 x_1 x_2 x_3 x_4 x_5 3 w)))
 (= ?x4661 ?x8319))))
 ))
 (let (($x2785 (forall ((n (_ BitVec 6)) )(let ((?x4897 (stack_t x_0 x_1 x_2 x_3 x_4 x_5 2 n)))
 (let ((?x5779 (stack_t x_0 x_1 x_2 x_3 x_4 x_5 3 n)))
 (let ((?x2714 (sc_t 2)))
 (let ((?x1241 (bvadd (_ bv58 6) ?x2714)))
 (let (($x7781 (bvsle ?x1241 n)))
 (or $x7781 (= ?x5779 ?x4897))))))))
 ))
 (let ((?x2714 (sc_t 2)))
 (let (($x2407 (= ?x6438 ?x2714)))
 (let (($x5281 (= (used_gas_t x_0 x_1 x_2 x_3 x_4 x_5 3) (+ 3 (used_gas_t x_0 x_1 x_2 x_3 x_4 x_5 2)))))
 (let ((?x3921 (bvadd (_ bv62 6) ?x2714)))
 (let ((?x8246 (stack_t x_0 x_1 x_2 x_3 x_4 x_5 2 ?x3921)))
 (let (($x32 (= (stack_t x_0 x_1 x_2 x_3 x_4 x_5 3 (bvadd (_ bv62 6) ?x6438)) ?x8246)))
 (let ((?x1348 (bvadd (_ bv61 6) ?x2714)))
 (let ((?x8892 (stack_t x_0 x_1 x_2 x_3 x_4 x_5 2 ?x1348)))
 (let (($x1706 (= (stack_t x_0 x_1 x_2 x_3 x_4 x_5 3 (bvadd (_ bv61 6) ?x6438)) ?x8892)))
 (let ((?x4673 (bvadd (_ bv60 6) ?x2714)))
 (let ((?x876 (stack_t x_0 x_1 x_2 x_3 x_4 x_5 2 ?x4673)))
 (let (($x998 (= (stack_t x_0 x_1 x_2 x_3 x_4 x_5 3 (bvadd (_ bv60 6) ?x6438)) ?x876)))
 (let ((?x5127 (bvadd (_ bv59 6) ?x2714)))
 (let ((?x1280 (stack_t x_0 x_1 x_2 x_3 x_4 x_5 2 ?x5127)))
 (let (($x8785 (= (stack_t x_0 x_1 x_2 x_3 x_4 x_5 3 (bvadd (_ bv59 6) ?x6438)) ?x1280)))
 (let ((?x3527 (bvadd (_ bv63 6) ?x2714)))
 (let ((?x3037 (stack_t x_0 x_1 x_2 x_3 x_4 x_5 2 ?x3527)))
 (let (($x9756 (= (stack_t x_0 x_1 x_2 x_3 x_4 x_5 3 (bvadd (_ bv58 6) ?x6438)) ?x3037)))
 (let (($x3095 (= (stack_t x_0 x_1 x_2 x_3 x_4 x_5 3 (bvadd (_ bv63 6) ?x6438)) (stack_t x_0 x_1 x_2 x_3 x_4 x_5 2 (bvadd (_ bv58 6) ?x2714)))))
 (let (($x5252 (exc_halt_t 2)))
 (let (($x6209 (= $x5252 (or (exc_halt_t 1) (not (bvsle (_ bv0 6) (bvadd (_ bv59 6) (sc_t 1))))))))
 (let (($x10976 (forall ((w (_ BitVec 256)) )(let ((?x8893 (storage_t x_0 x_1 x_2 x_3 x_4 x_5 1 w)))
 (let ((?x8319 (storage_t x_0 x_1 x_2 x_3 x_4 x_5 2 w)))
 (= ?x8319 ?x8893))))
 ))
 (let (($x985 (forall ((n (_ BitVec 6)) )(let ((?x8347 (sc_t 1)))
 (let ((?x6866 (bvadd (_ bv59 6) ?x8347)))
 (let (($x8648 (bvsle ?x6866 n)))
 (let ((?x5519 (stack_t x_0 x_1 x_2 x_3 x_4 x_5 1 n)))
 (let ((?x4897 (stack_t x_0 x_1 x_2 x_3 x_4 x_5 2 n)))
 (or (= ?x4897 ?x5519) $x8648)))))))
 ))
 (let ((?x8347 (sc_t 1)))
 (let (($x11411 (= ?x2714 ?x8347)))
 (let ((?x7094 (used_gas_t x_0 x_1 x_2 x_3 x_4 x_5 2)))
 (let ((?x10952 (bvadd (_ bv62 6) ?x8347)))
 (let ((?x1294 (stack_t x_0 x_1 x_2 x_3 x_4 x_5 1 ?x10952)))
 (let (($x6892 (= ?x8892 (stack_t x_0 x_1 x_2 x_3 x_4 x_5 1 (bvadd (_ bv61 6) ?x8347)))))
 (let (($x7474 (= ?x876 (stack_t x_0 x_1 x_2 x_3 x_4 x_5 1 (bvadd (_ bv60 6) ?x8347)))))
 (let ((?x1126 (bvadd (_ bv63 6) ?x8347)))
 (let ((?x6769 (stack_t x_0 x_1 x_2 x_3 x_4 x_5 1 ?x1126)))
 (let (($x1284 (= ?x3037 (stack_t x_0 x_1 x_2 x_3 x_4 x_5 1 (bvadd (_ bv59 6) ?x8347)))))
 (let (($x3508 (exc_halt_t 1)))
 (let (($x2034 (= $x3508 (or $x56 (not (bvsle (_ bv0 6) (bvadd (_ bv62 6) ?x63)))))))
 (let (($x3780 (forall ((w (_ BitVec 256)) )(let ((?x5643 (storage_t x_0 x_1 x_2 x_3 x_4 x_5 0 w)))
 (let ((?x8893 (storage_t x_0 x_1 x_2 x_3 x_4 x_5 1 w)))
 (= ?x8893 ?x5643))))
 ))
 (let (($x10386 (forall ((n (_ BitVec 6)) )(let ((?x11196 (stack_t x_0 x_1 x_2 x_3 x_4 x_5 0 n)))
 (let ((?x5519 (stack_t x_0 x_1 x_2 x_3 x_4 x_5 1 n)))
 (let ((?x63 (sc_t 0)))
 (let ((?x11351 (bvadd (_ bv62 6) ?x63)))
 (let (($x4792 (bvsle ?x11351 n)))
 (or $x4792 (= ?x5519 ?x11196))))))))
 ))
 (let (($x9376 (= ?x8347 ?x63)))
 (let (($x7459 (= ?x1294 (stack_t x_0 x_1 x_2 x_3 x_4 x_5 0 (bvadd (_ bv63 6) ?x63)))))
 (let (($x9424 (= ?x6769 (stack_t x_0 x_1 x_2 x_3 x_4 x_5 0 (bvadd (_ bv62 6) ?x63)))))
 (let (($x7471 (= $x11317 (or (exc_halt_s 4) (not (bvsle (_ bv0 6) (bvadd (_ bv62 6) (sc_s 4))))))))
 (let (($x4147 (forall ((w (_ BitVec 256)) )(let ((?x30 (storage_s x_0 x_1 x_2 x_3 x_4 x_5 4 w)))
 (let ((?x6635 (storage_s x_0 x_1 x_2 x_3 x_4 x_5 5 w)))
 (= ?x6635 ?x30))))
 ))
 (let (($x5353 (forall ((n (_ BitVec 6)) )(let ((?x4305 (sc_s 4)))
 (let ((?x9107 (bvadd (_ bv62 6) ?x4305)))
 (let (($x9713 (bvsle ?x9107 n)))
 (let ((?x6249 (stack_s x_0 x_1 x_2 x_3 x_4 x_5 4 n)))
 (let ((?x8461 (stack_s x_0 x_1 x_2 x_3 x_4 x_5 5 n)))
 (or (= ?x8461 ?x6249) $x9713)))))))
 ))
 (let ((?x4305 (sc_s 4)))
 (let (($x5774 (= ?x4319 ?x4305)))
 (let (($x394 (= (used_gas_s x_0 x_1 x_2 x_3 x_4 x_5 5) (+ 3 (used_gas_s x_0 x_1 x_2 x_3 x_4 x_5 4)))))
 (let ((?x7978 (bvadd (_ bv63 6) ?x4305)))
 (let ((?x10684 (stack_s x_0 x_1 x_2 x_3 x_4 x_5 4 ?x7978)))
 (let (($x10917 (= (stack_s x_0 x_1 x_2 x_3 x_4 x_5 5 (bvadd (_ bv62 6) ?x4319)) ?x10684)))
 (let ((?x9107 (bvadd (_ bv62 6) ?x4305)))
 (let ((?x2086 (stack_s x_0 x_1 x_2 x_3 x_4 x_5 4 ?x9107)))
 (let (($x3384 (= (stack_s x_0 x_1 x_2 x_3 x_4 x_5 5 (bvadd (_ bv63 6) ?x4319)) ?x2086)))
 (let (($x7172 (exc_halt_s 4)))
 (let (($x9086 (= $x7172 (or (exc_halt_s 3) (not (bvsle (_ bv0 6) (bvadd (_ bv59 6) (sc_s 3))))))))
 (let (($x7628 (forall ((w (_ BitVec 256)) )(let ((?x6864 (storage_s x_0 x_1 x_2 x_3 x_4 x_5 3 w)))
 (let ((?x30 (storage_s x_0 x_1 x_2 x_3 x_4 x_5 4 w)))
 (= ?x30 ?x6864))))
 ))
 (let (($x2239 (forall ((n (_ BitVec 6)) )(let ((?x275 (sc_s 3)))
 (let ((?x8537 (bvadd (_ bv59 6) ?x275)))
 (let (($x6755 (bvsle ?x8537 n)))
 (let ((?x3836 (stack_s x_0 x_1 x_2 x_3 x_4 x_5 3 n)))
 (let ((?x6249 (stack_s x_0 x_1 x_2 x_3 x_4 x_5 4 n)))
 (or (= ?x6249 ?x3836) $x6755)))))))
 ))
 (let ((?x275 (sc_s 3)))
 (let (($x4885 (= ?x4305 ?x275)))
 (let ((?x3875 (used_gas_s x_0 x_1 x_2 x_3 x_4 x_5 4)))
 (let ((?x5458 (bvadd (_ bv62 6) ?x275)))
 (let ((?x5613 (stack_s x_0 x_1 x_2 x_3 x_4 x_5 3 ?x5458)))
 (let (($x9943 (= (stack_s x_0 x_1 x_2 x_3 x_4 x_5 4 (bvadd (_ bv61 6) ?x4305)) (stack_s x_0 x_1 x_2 x_3 x_4 x_5 3 (bvadd (_ bv61 6) ?x275)))))
 (let (($x7519 (= (stack_s x_0 x_1 x_2 x_3 x_4 x_5 4 (bvadd (_ bv60 6) ?x4305)) (stack_s x_0 x_1 x_2 x_3 x_4 x_5 3 (bvadd (_ bv60 6) ?x275)))))
 (let ((?x3893 (bvadd (_ bv63 6) ?x275)))
 (let ((?x7406 (stack_s x_0 x_1 x_2 x_3 x_4 x_5 3 ?x3893)))
 (let (($x5179 (= (stack_s x_0 x_1 x_2 x_3 x_4 x_5 4 (bvadd (_ bv59 6) ?x4305)) ?x7406)))
 (let (($x4525 (= ?x10684 (stack_s x_0 x_1 x_2 x_3 x_4 x_5 3 (bvadd (_ bv59 6) ?x275)))))
 (let (($x292 (exc_halt_s 3)))
 (let (($x5862 (= $x292 (or (exc_halt_s 2) (not (bvsle (_ bv0 6) (bvadd (_ bv62 6) (sc_s 2))))))))
 (let (($x10514 (forall ((w (_ BitVec 256)) )(let ((?x8901 (storage_s x_0 x_1 x_2 x_3 x_4 x_5 2 w)))
 (let ((?x6864 (storage_s x_0 x_1 x_2 x_3 x_4 x_5 3 w)))
 (= ?x6864 ?x8901))))
 ))
 (let (($x1649 (forall ((n (_ BitVec 6)) )(let ((?x696 (stack_s x_0 x_1 x_2 x_3 x_4 x_5 2 n)))
 (let ((?x3836 (stack_s x_0 x_1 x_2 x_3 x_4 x_5 3 n)))
 (let ((?x218 (sc_s 2)))
 (let ((?x5834 (bvadd (_ bv62 6) ?x218)))
 (let (($x431 (bvsle ?x5834 n)))
 (or $x431 (= ?x3836 ?x696))))))))
 ))
 (let ((?x218 (sc_s 2)))
 (let (($x8484 (= ?x275 ?x218)))
 (let ((?x7534 (used_gas_s x_0 x_1 x_2 x_3 x_4 x_5 3)))
 (let ((?x5211 (bvadd (_ bv63 6) ?x218)))
 (let ((?x8794 (stack_s x_0 x_1 x_2 x_3 x_4 x_5 2 ?x5211)))
 (let ((?x5834 (bvadd (_ bv62 6) ?x218)))
 (let ((?x633 (stack_s x_0 x_1 x_2 x_3 x_4 x_5 2 ?x5834)))
 (let (($x247 (exc_halt_s 2)))
 (let (($x3488 (= $x247 (or (exc_halt_s 1) (not (bvsle (_ bv0 6) (bvadd (_ bv58 6) (sc_s 1))))))))
 (let (($x2527 (forall ((w (_ BitVec 256)) )(let ((?x9807 (storage_s x_0 x_1 x_2 x_3 x_4 x_5 1 w)))
 (let ((?x8901 (storage_s x_0 x_1 x_2 x_3 x_4 x_5 2 w)))
 (= ?x8901 ?x9807))))
 ))
 (let (($x1874 (forall ((n (_ BitVec 6)) )(let ((?x1840 (stack_s x_0 x_1 x_2 x_3 x_4 x_5 1 n)))
 (let ((?x696 (stack_s x_0 x_1 x_2 x_3 x_4 x_5 2 n)))
 (let ((?x154 (sc_s 1)))
 (let ((?x5395 (bvadd (_ bv58 6) ?x154)))
 (let (($x7399 (bvsle ?x5395 n)))
 (or $x7399 (= ?x696 ?x1840))))))))
 ))
 (let ((?x154 (sc_s 1)))
 (let (($x564 (= ?x218 ?x154)))
 (let ((?x823 (used_gas_s x_0 x_1 x_2 x_3 x_4 x_5 2)))
 (let ((?x4938 (bvadd (_ bv62 6) ?x154)))
 (let ((?x2709 (stack_s x_0 x_1 x_2 x_3 x_4 x_5 1 ?x4938)))
 (let ((?x8937 (bvadd (_ bv61 6) ?x154)))
 (let ((?x7273 (stack_s x_0 x_1 x_2 x_3 x_4 x_5 1 ?x8937)))
 (let (($x11464 (= (stack_s x_0 x_1 x_2 x_3 x_4 x_5 2 (bvadd (_ bv61 6) ?x218)) ?x7273)))
 (let ((?x8642 (bvadd (_ bv60 6) ?x154)))
 (let ((?x3705 (stack_s x_0 x_1 x_2 x_3 x_4 x_5 1 ?x8642)))
 (let (($x5002 (= (stack_s x_0 x_1 x_2 x_3 x_4 x_5 2 (bvadd (_ bv60 6) ?x218)) ?x3705)))
 (let ((?x5584 (bvadd (_ bv59 6) ?x154)))
 (let ((?x10049 (stack_s x_0 x_1 x_2 x_3 x_4 x_5 1 ?x5584)))
 (let (($x5035 (= (stack_s x_0 x_1 x_2 x_3 x_4 x_5 2 (bvadd (_ bv59 6) ?x218)) ?x10049)))
 (let ((?x6951 (bvadd (_ bv63 6) ?x154)))
 (let ((?x2846 (stack_s x_0 x_1 x_2 x_3 x_4 x_5 1 ?x6951)))
 (let (($x2275 (= (stack_s x_0 x_1 x_2 x_3 x_4 x_5 2 (bvadd (_ bv58 6) ?x218)) ?x2846)))
 (let (($x11205 (= ?x8794 (stack_s x_0 x_1 x_2 x_3 x_4 x_5 1 (bvadd (_ bv58 6) ?x154)))))
 (let (($x3778 (forall ((w (_ BitVec 256)) )(let ((?x9722 (storage_s x_0 x_1 x_2 x_3 x_4 x_5 0 w)))
 (let ((?x9807 (storage_s x_0 x_1 x_2 x_3 x_4 x_5 1 w)))
 (= ?x9807 ?x9722))))
 ))
 (let (($x10971 (forall ((n (_ BitVec 6)) )(let ((?x72 (sc_s 0)))
 (let ((?x10401 (bvadd (_ bv59 6) ?x72)))
 (let (($x9115 (bvsle ?x10401 n)))
 (let ((?x357 (stack_s x_0 x_1 x_2 x_3 x_4 x_5 0 n)))
 (let ((?x1840 (stack_s x_0 x_1 x_2 x_3 x_4 x_5 1 n)))
 (or (= ?x1840 ?x357) $x9115)))))))
 ))
 (let (($x2238 (= ?x2709 (stack_s x_0 x_1 x_2 x_3 x_4 x_5 0 (bvadd (_ bv62 6) ?x72)))))
 (let (($x10062 (= ?x7273 (stack_s x_0 x_1 x_2 x_3 x_4 x_5 0 (bvadd (_ bv61 6) ?x72)))))
 (let (($x1542 (= ?x3705 (stack_s x_0 x_1 x_2 x_3 x_4 x_5 0 (bvadd (_ bv60 6) ?x72)))))
 (let (($x670 (= ?x10049 (stack_s x_0 x_1 x_2 x_3 x_4 x_5 0 (bvadd (_ bv63 6) ?x72)))))
 (let (($x6090 (= ?x2846 (stack_s x_0 x_1 x_2 x_3 x_4 x_5 0 (bvadd (_ bv59 6) ?x72)))))
 (let (($x8882 (forall ((w (_ BitVec 256)) )(let ((?x9722 (storage_s x_0 x_1 x_2 x_3 x_4 x_5 0 w)))
 (= ?x9722 (_ bv0 256))))
 ))
 (let (($x7048 (= ?x9589 0)))
 (let (($x11124 (not $x57)))
 (let (($x9137 (= (stack_s x_0 x_1 x_2 x_3 x_4 x_5 0 (_ bv5 6)) x_5)))
 (let (($x10313 (= (stack_s x_0 x_1 x_2 x_3 x_4 x_5 0 (_ bv4 6)) x_4)))
 (let (($x688 (= (stack_s x_0 x_1 x_2 x_3 x_4 x_5 0 (_ bv3 6)) x_3)))
 (let (($x2369 (= (stack_s x_0 x_1 x_2 x_3 x_4 x_5 0 (_ bv2 6)) x_2)))
 (let (($x9641 (= (stack_s x_0 x_1 x_2 x_3 x_4 x_5 0 (_ bv1 6)) x_1)))
 (let (($x4050 (= (stack_s x_0 x_1 x_2 x_3 x_4 x_5 0 (_ bv0 6)) x_0)))
 (let (($x709 (= ?x72 (_ bv6 6))))
 (and $x709 $x4050 $x9641 $x2369 $x688 $x10313 $x9137 $x11124 $x7048 $x8882 $x6090 $x670 $x1542 $x10062 $x2238 (= (used_gas_s x_0 x_1 x_2 x_3 x_4 x_5 1) (+ 3 ?x9589)) (= ?x154 ?x72) $x10971 $x3778 (= (exc_halt_s 1) (or $x57 (not (bvsle (_ bv0 6) (bvadd (_ bv59 6) ?x72))))) $x11205 $x2275 $x5035 $x5002 $x11464 (= ?x633 ?x2709) (= ?x823 (+ 3 (used_gas_s x_0 x_1 x_2 x_3 x_4 x_5 1))) $x564 $x1874 $x2527 $x3488 (= ?x7406 ?x633) (= ?x5613 ?x8794) (= ?x7534 (+ 3 ?x823)) $x8484 $x1649 $x10514 $x5862 $x4525 $x5179 $x7519 $x9943 (= ?x2086 ?x5613) (= ?x3875 (+ 3 ?x7534)) $x4885 $x2239 $x7628 $x9086 $x3384 $x10917 $x394 $x5774 $x5353 $x4147 $x7471 $x9424 $x7459 (= (used_gas_t x_0 x_1 x_2 x_3 x_4 x_5 1) (+ 3 ?x2427)) $x9376 $x10386 $x3780 $x2034 $x1284 (= ?x1280 ?x6769) $x7474 $x6892 (= ?x8246 ?x1294) (= ?x7094 (+ 3 (used_gas_t x_0 x_1 x_2 x_3 x_4 x_5 1))) $x11411 $x985 $x10976 $x6209 $x3095 $x9756 $x8785 $x998 $x1706 $x32 $x5281 $x2407 $x2785 $x1823 $x10240 $x73 $x5917 $x58 $x5141 $x5820 (not (and $x7281 $x2042 $x11613 $x5878)))))))))))))))))))))))))))))))))))))))))))))))))))))))))))))))))))))))))))))))))))))))))))))))))))))))))))))))))))))))))))))))))))))))))))))))
 )
(check-sat)
(get-proof)
